c Reduced graph for r25 generated by Cyril Grelier
p edge 266 3177
e 1 2
e 1 4
e 1 5
e 1 6
e 1 10
e 1 11
e 1 12
e 1 13
e 1 14
e 1 15
e 1 16
e 1 17
e 1 19
e 1 28
e 1 30
e 1 33
e 1 34
e 1 35
e 1 36
e 1 38
e 1 40
e 1 56
e 1 67
e 1 68
e 1 69
e 1 91
e 1 112
e 1 142
e 1 181
e 1 221
e 2 3
e 2 7
e 2 8
e 2 9
e 2 10
e 2 19
e 2 21
e 2 22
e 2 23
e 2 24
e 2 25
e 2 28
e 2 30
e 2 36
e 2 38
e 2 40
e 2 47
e 2 48
e 2 56
e 2 69
e 2 91
e 2 92
e 2 93
e 2 94
e 2 135
e 2 142
e 2 181
e 2 221
e 3 7
e 3 8
e 3 9
e 3 18
e 3 20
e 3 21
e 3 22
e 3 23
e 3 24
e 3 25
e 3 29
e 3 31
e 3 32
e 3 37
e 3 39
e 3 47
e 3 48
e 3 57
e 3 92
e 3 93
e 3 94
e 3 135
e 3 143
e 3 144
e 3 165
e 3 182
e 3 195
e 3 222
e 4 5
e 4 6
e 4 11
e 4 12
e 4 13
e 4 14
e 4 15
e 4 16
e 4 17
e 4 27
e 4 33
e 4 34
e 4 35
e 4 42
e 4 45
e 4 59
e 4 61
e 4 64
e 4 67
e 4 68
e 4 71
e 4 74
e 4 78
e 4 98
e 4 112
e 4 114
e 4 173
e 4 212
e 5 6
e 5 8
e 5 11
e 5 12
e 5 13
e 5 14
e 5 15
e 5 16
e 5 17
e 5 33
e 5 34
e 5 35
e 5 43
e 5 62
e 5 65
e 5 67
e 5 68
e 5 72
e 5 75
e 5 79
e 5 99
e 5 112
e 5 134
e 5 174
e 5 177
e 5 179
e 5 196
e 6 9
e 6 11
e 6 12
e 6 13
e 6 14
e 6 15
e 6 16
e 6 17
e 6 33
e 6 34
e 6 35
e 6 44
e 6 46
e 6 60
e 6 63
e 6 66
e 6 67
e 6 68
e 6 76
e 6 112
e 6 175
e 6 178
e 6 180
e 6 197
e 6 213
e 6 240
e 7 8
e 7 9
e 7 21
e 7 22
e 7 23
e 7 24
e 7 25
e 7 26
e 7 41
e 7 47
e 7 48
e 7 58
e 7 70
e 7 73
e 7 77
e 7 92
e 7 93
e 7 94
e 7 113
e 7 133
e 7 135
e 7 172
e 7 176
e 7 211
e 7 223
e 7 239
e 8 9
e 8 21
e 8 22
e 8 23
e 8 24
e 8 25
e 8 43
e 8 47
e 8 48
e 8 62
e 8 65
e 8 72
e 8 75
e 8 79
e 8 92
e 8 93
e 8 94
e 8 99
e 8 134
e 8 135
e 8 174
e 8 177
e 8 179
e 8 196
e 9 21
e 9 22
e 9 23
e 9 24
e 9 25
e 9 44
e 9 46
e 9 47
e 9 48
e 9 60
e 9 63
e 9 66
e 9 76
e 9 92
e 9 93
e 9 94
e 9 135
e 9 175
e 9 178
e 9 180
e 9 197
e 9 213
e 9 240
e 10 19
e 10 26
e 10 27
e 10 28
e 10 30
e 10 36
e 10 38
e 10 40
e 10 49
e 10 50
e 10 51
e 10 52
e 10 53
e 10 54
e 10 55
e 10 56
e 10 69
e 10 91
e 10 95
e 10 96
e 10 97
e 10 136
e 10 137
e 10 142
e 10 181
e 10 221
e 11 12
e 11 13
e 11 14
e 11 15
e 11 16
e 11 17
e 11 33
e 11 34
e 11 35
e 11 49
e 11 67
e 11 68
e 11 80
e 11 86
e 11 104
e 11 112
e 11 115
e 11 121
e 11 138
e 11 153
e 11 166
e 11 201
e 11 204
e 11 224
e 12 13
e 12 14
e 12 15
e 12 16
e 12 17
e 12 21
e 12 33
e 12 34
e 12 35
e 12 50
e 12 67
e 12 68
e 12 87
e 12 105
e 12 108
e 12 112
e 12 116
e 12 139
e 12 154
e 12 209
e 12 225
e 12 241
e 12 251
e 13 14
e 13 15
e 13 16
e 13 17
e 13 22
e 13 33
e 13 34
e 13 35
e 13 51
e 13 67
e 13 68
e 13 81
e 13 100
e 13 112
e 13 117
e 13 122
e 13 140
e 13 155
e 13 202
e 13 210
e 13 242
e 13 252
e 14 15
e 14 16
e 14 17
e 14 23
e 14 33
e 14 34
e 14 35
e 14 52
e 14 67
e 14 68
e 14 82
e 14 88
e 14 101
e 14 106
e 14 109
e 14 112
e 14 118
e 14 123
e 14 156
e 14 167
e 14 205
e 15 16
e 15 17
e 15 33
e 15 34
e 15 35
e 15 53
e 15 67
e 15 68
e 15 83
e 15 102
e 15 107
e 15 110
e 15 112
e 15 119
e 15 124
e 15 127
e 15 168
e 15 206
e 15 226
e 15 235
e 16 17
e 16 24
e 16 33
e 16 34
e 16 35
e 16 54
e 16 67
e 16 68
e 16 84
e 16 89
e 16 111
e 16 112
e 16 120
e 16 125
e 16 128
e 16 169
e 16 203
e 16 207
e 16 236
e 17 25
e 17 33
e 17 34
e 17 35
e 17 55
e 17 67
e 17 68
e 17 85
e 17 90
e 17 103
e 17 112
e 17 126
e 17 129
e 17 141
e 17 157
e 17 170
e 17 208
e 17 243
e 18 20
e 18 29
e 18 31
e 18 32
e 18 37
e 18 39
e 18 41
e 18 42
e 18 43
e 18 44
e 18 57
e 18 80
e 18 81
e 18 82
e 18 83
e 18 84
e 18 85
e 18 143
e 18 144
e 18 162
e 18 163
e 18 165
e 18 182
e 18 193
e 18 195
e 18 222
e 19 20
e 19 28
e 19 30
e 19 36
e 19 38
e 19 40
e 19 45
e 19 46
e 19 56
e 19 69
e 19 86
e 19 87
e 19 88
e 19 89
e 19 90
e 19 91
e 19 130
e 19 131
e 19 132
e 19 142
e 19 164
e 19 181
e 19 194
e 19 221
e 20 29
e 20 31
e 20 32
e 20 37
e 20 39
e 20 45
e 20 46
e 20 57
e 20 86
e 20 87
e 20 88
e 20 89
e 20 90
e 20 130
e 20 131
e 20 132
e 20 143
e 20 144
e 20 164
e 20 165
e 20 182
e 20 194
e 20 195
e 20 222
e 21 22
e 21 23
e 21 24
e 21 25
e 21 47
e 21 48
e 21 50
e 21 87
e 21 92
e 21 93
e 21 94
e 21 105
e 21 108
e 21 116
e 21 135
e 21 139
e 21 154
e 21 209
e 21 225
e 21 241
e 21 251
e 22 23
e 22 24
e 22 25
e 22 47
e 22 48
e 22 51
e 22 81
e 22 92
e 22 93
e 22 94
e 22 100
e 22 117
e 22 122
e 22 135
e 22 140
e 22 155
e 22 202
e 22 210
e 22 242
e 22 252
e 23 24
e 23 25
e 23 47
e 23 48
e 23 52
e 23 82
e 23 88
e 23 92
e 23 93
e 23 94
e 23 101
e 23 106
e 23 109
e 23 118
e 23 123
e 23 135
e 23 156
e 23 167
e 23 205
e 24 25
e 24 47
e 24 48
e 24 54
e 24 84
e 24 89
e 24 92
e 24 93
e 24 94
e 24 111
e 24 120
e 24 125
e 24 128
e 24 135
e 24 169
e 24 203
e 24 207
e 24 236
e 25 47
e 25 48
e 25 55
e 25 85
e 25 90
e 25 92
e 25 93
e 25 94
e 25 103
e 25 126
e 25 129
e 25 135
e 25 141
e 25 157
e 25 170
e 25 208
e 25 243
e 26 27
e 26 41
e 26 49
e 26 50
e 26 51
e 26 52
e 26 53
e 26 54
e 26 55
e 26 58
e 26 70
e 26 73
e 26 77
e 26 95
e 26 96
e 26 97
e 26 113
e 26 133
e 26 136
e 26 137
e 26 172
e 26 176
e 26 211
e 26 223
e 26 239
e 27 42
e 27 45
e 27 49
e 27 50
e 27 51
e 27 52
e 27 53
e 27 54
e 27 55
e 27 59
e 27 61
e 27 64
e 27 71
e 27 74
e 27 78
e 27 95
e 27 96
e 27 97
e 27 98
e 27 114
e 27 136
e 27 137
e 27 173
e 27 212
e 28 29
e 28 30
e 28 36
e 28 38
e 28 40
e 28 56
e 28 58
e 28 59
e 28 60
e 28 69
e 28 91
e 28 100
e 28 101
e 28 102
e 28 103
e 28 142
e 28 145
e 28 146
e 28 181
e 28 183
e 28 184
e 28 185
e 28 221
e 29 31
e 29 32
e 29 37
e 29 39
e 29 57
e 29 58
e 29 59
e 29 60
e 29 100
e 29 101
e 29 102
e 29 103
e 29 143
e 29 144
e 29 145
e 29 146
e 29 165
e 29 182
e 29 183
e 29 184
e 29 185
e 29 195
e 29 222
e 30 31
e 30 36
e 30 38
e 30 40
e 30 56
e 30 61
e 30 62
e 30 63
e 30 69
e 30 91
e 30 104
e 30 105
e 30 106
e 30 107
e 30 142
e 30 147
e 30 148
e 30 149
e 30 181
e 30 186
e 30 214
e 30 221
e 31 32
e 31 37
e 31 39
e 31 57
e 31 61
e 31 62
e 31 63
e 31 104
e 31 105
e 31 106
e 31 107
e 31 143
e 31 144
e 31 147
e 31 148
e 31 149
e 31 165
e 31 182
e 31 186
e 31 195
e 31 214
e 31 222
e 32 37
e 32 39
e 32 57
e 32 64
e 32 65
e 32 66
e 32 108
e 32 109
e 32 110
e 32 111
e 32 143
e 32 144
e 32 150
e 32 151
e 32 152
e 32 165
e 32 182
e 32 187
e 32 188
e 32 195
e 32 215
e 32 222
e 33 34
e 33 35
e 33 47
e 33 67
e 33 68
e 33 95
e 33 112
e 33 130
e 33 145
e 33 147
e 33 150
e 33 171
e 33 198
e 33 231
e 33 233
e 33 250
e 34 35
e 34 67
e 34 68
e 34 96
e 34 112
e 34 131
e 34 148
e 34 151
e 34 158
e 34 160
e 34 189
e 34 234
e 34 244
e 34 253
e 34 261
e 35 48
e 35 67
e 35 68
e 35 97
e 35 112
e 35 132
e 35 146
e 35 149
e 35 152
e 35 159
e 35 161
e 35 190
e 35 232
e 35 254
e 36 37
e 36 38
e 36 40
e 36 56
e 36 69
e 36 70
e 36 71
e 36 72
e 36 91
e 36 115
e 36 116
e 36 117
e 36 118
e 36 119
e 36 120
e 36 142
e 36 158
e 36 159
e 36 181
e 36 217
e 36 221
e 37 39
e 37 57
e 37 70
e 37 71
e 37 72
e 37 115
e 37 116
e 37 117
e 37 118
e 37 119
e 37 120
e 37 143
e 37 144
e 37 158
e 37 159
e 37 165
e 37 182
e 37 195
e 37 217
e 37 222
e 38 39
e 38 40
e 38 56
e 38 69
e 38 73
e 38 74
e 38 75
e 38 76
e 38 91
e 38 121
e 38 122
e 38 123
e 38 124
e 38 125
e 38 126
e 38 142
e 38 181
e 38 218
e 38 221
e 39 57
e 39 73
e 39 74
e 39 75
e 39 76
e 39 121
e 39 122
e 39 123
e 39 124
e 39 125
e 39 126
e 39 143
e 39 144
e 39 165
e 39 182
e 39 195
e 39 218
e 39 222
e 40 56
e 40 69
e 40 77
e 40 78
e 40 79
e 40 91
e 40 127
e 40 128
e 40 129
e 40 142
e 40 160
e 40 161
e 40 181
e 40 191
e 40 192
e 40 219
e 40 220
e 40 221
e 41 42
e 41 43
e 41 44
e 41 58
e 41 70
e 41 73
e 41 77
e 41 80
e 41 81
e 41 82
e 41 83
e 41 84
e 41 85
e 41 113
e 41 133
e 41 162
e 41 163
e 41 172
e 41 176
e 41 193
e 41 211
e 41 223
e 41 239
e 42 43
e 42 44
e 42 45
e 42 59
e 42 61
e 42 64
e 42 71
e 42 74
e 42 78
e 42 80
e 42 81
e 42 82
e 42 83
e 42 84
e 42 85
e 42 98
e 42 114
e 42 162
e 42 163
e 42 173
e 42 193
e 42 212
e 43 44
e 43 62
e 43 65
e 43 72
e 43 75
e 43 79
e 43 80
e 43 81
e 43 82
e 43 83
e 43 84
e 43 85
e 43 99
e 43 134
e 43 162
e 43 163
e 43 174
e 43 177
e 43 179
e 43 193
e 43 196
e 44 46
e 44 60
e 44 63
e 44 66
e 44 76
e 44 80
e 44 81
e 44 82
e 44 83
e 44 84
e 44 85
e 44 162
e 44 163
e 44 175
e 44 178
e 44 180
e 44 193
e 44 197
e 44 213
e 44 240
e 45 46
e 45 59
e 45 61
e 45 64
e 45 71
e 45 74
e 45 78
e 45 86
e 45 87
e 45 88
e 45 89
e 45 90
e 45 98
e 45 114
e 45 130
e 45 131
e 45 132
e 45 164
e 45 173
e 45 194
e 45 212
e 46 60
e 46 63
e 46 66
e 46 76
e 46 86
e 46 87
e 46 88
e 46 89
e 46 90
e 46 130
e 46 131
e 46 132
e 46 164
e 46 175
e 46 178
e 46 180
e 46 194
e 46 197
e 46 213
e 46 240
e 47 48
e 47 92
e 47 93
e 47 94
e 47 95
e 47 130
e 47 135
e 47 145
e 47 147
e 47 150
e 47 171
e 47 198
e 47 231
e 47 233
e 47 250
e 48 92
e 48 93
e 48 94
e 48 97
e 48 132
e 48 135
e 48 146
e 48 149
e 48 152
e 48 159
e 48 161
e 48 190
e 48 232
e 48 254
e 49 50
e 49 51
e 49 52
e 49 53
e 49 54
e 49 55
e 49 80
e 49 86
e 49 95
e 49 96
e 49 97
e 49 104
e 49 115
e 49 121
e 49 136
e 49 137
e 49 138
e 49 153
e 49 166
e 49 201
e 49 204
e 49 224
e 50 51
e 50 52
e 50 53
e 50 54
e 50 55
e 50 87
e 50 95
e 50 96
e 50 97
e 50 105
e 50 108
e 50 116
e 50 136
e 50 137
e 50 139
e 50 154
e 50 209
e 50 225
e 50 241
e 50 251
e 51 52
e 51 53
e 51 54
e 51 55
e 51 81
e 51 95
e 51 96
e 51 97
e 51 100
e 51 117
e 51 122
e 51 136
e 51 137
e 51 140
e 51 155
e 51 202
e 51 210
e 51 242
e 51 252
e 52 53
e 52 54
e 52 55
e 52 82
e 52 88
e 52 95
e 52 96
e 52 97
e 52 101
e 52 106
e 52 109
e 52 118
e 52 123
e 52 136
e 52 137
e 52 156
e 52 167
e 52 205
e 53 54
e 53 55
e 53 83
e 53 95
e 53 96
e 53 97
e 53 102
e 53 107
e 53 110
e 53 119
e 53 124
e 53 127
e 53 136
e 53 137
e 53 168
e 53 206
e 53 226
e 53 235
e 54 55
e 54 84
e 54 89
e 54 95
e 54 96
e 54 97
e 54 111
e 54 120
e 54 125
e 54 128
e 54 136
e 54 137
e 54 169
e 54 203
e 54 207
e 54 236
e 55 85
e 55 90
e 55 95
e 55 96
e 55 97
e 55 103
e 55 126
e 55 129
e 55 136
e 55 137
e 55 141
e 55 157
e 55 170
e 55 208
e 55 243
e 56 57
e 56 69
e 56 91
e 56 98
e 56 99
e 56 138
e 56 139
e 56 140
e 56 141
e 56 142
e 56 171
e 56 181
e 56 199
e 56 200
e 56 221
e 56 229
e 56 230
e 57 98
e 57 99
e 57 138
e 57 139
e 57 140
e 57 141
e 57 143
e 57 144
e 57 165
e 57 171
e 57 182
e 57 195
e 57 199
e 57 200
e 57 222
e 57 229
e 57 230
e 58 59
e 58 60
e 58 70
e 58 73
e 58 77
e 58 100
e 58 101
e 58 102
e 58 103
e 58 113
e 58 133
e 58 145
e 58 146
e 58 172
e 58 176
e 58 183
e 58 184
e 58 185
e 58 211
e 58 223
e 58 239
e 59 60
e 59 61
e 59 64
e 59 71
e 59 74
e 59 78
e 59 98
e 59 100
e 59 101
e 59 102
e 59 103
e 59 114
e 59 145
e 59 146
e 59 173
e 59 183
e 59 184
e 59 185
e 59 212
e 60 63
e 60 66
e 60 76
e 60 100
e 60 101
e 60 102
e 60 103
e 60 145
e 60 146
e 60 175
e 60 178
e 60 180
e 60 183
e 60 184
e 60 185
e 60 197
e 60 213
e 60 240
e 61 62
e 61 63
e 61 64
e 61 71
e 61 74
e 61 78
e 61 98
e 61 104
e 61 105
e 61 106
e 61 107
e 61 114
e 61 147
e 61 148
e 61 149
e 61 173
e 61 186
e 61 212
e 61 214
e 62 63
e 62 65
e 62 72
e 62 75
e 62 79
e 62 99
e 62 104
e 62 105
e 62 106
e 62 107
e 62 134
e 62 147
e 62 148
e 62 149
e 62 174
e 62 177
e 62 179
e 62 186
e 62 196
e 62 214
e 63 66
e 63 76
e 63 104
e 63 105
e 63 106
e 63 107
e 63 147
e 63 148
e 63 149
e 63 175
e 63 178
e 63 180
e 63 186
e 63 197
e 63 213
e 63 214
e 63 240
e 64 65
e 64 66
e 64 71
e 64 74
e 64 78
e 64 98
e 64 108
e 64 109
e 64 110
e 64 111
e 64 114
e 64 150
e 64 151
e 64 152
e 64 173
e 64 187
e 64 188
e 64 212
e 64 215
e 65 66
e 65 72
e 65 75
e 65 79
e 65 99
e 65 108
e 65 109
e 65 110
e 65 111
e 65 134
e 65 150
e 65 151
e 65 152
e 65 174
e 65 177
e 65 179
e 65 187
e 65 188
e 65 196
e 65 215
e 66 76
e 66 108
e 66 109
e 66 110
e 66 111
e 66 150
e 66 151
e 66 152
e 66 175
e 66 178
e 66 180
e 66 187
e 66 188
e 66 197
e 66 213
e 66 215
e 66 240
e 67 68
e 67 92
e 67 112
e 67 136
e 67 162
e 67 183
e 67 187
e 67 199
e 67 227
e 67 248
e 67 255
e 67 262
e 68 94
e 68 112
e 68 163
e 68 185
e 68 192
e 68 216
e 68 246
e 68 249
e 68 256
e 68 260
e 68 266
e 69 91
e 69 113
e 69 114
e 69 142
e 69 153
e 69 154
e 69 155
e 69 156
e 69 157
e 69 181
e 69 189
e 69 190
e 69 216
e 69 221
e 69 237
e 69 238
e 70 71
e 70 72
e 70 73
e 70 77
e 70 113
e 70 115
e 70 116
e 70 117
e 70 118
e 70 119
e 70 120
e 70 133
e 70 158
e 70 159
e 70 172
e 70 176
e 70 211
e 70 217
e 70 223
e 70 239
e 71 72
e 71 74
e 71 78
e 71 98
e 71 114
e 71 115
e 71 116
e 71 117
e 71 118
e 71 119
e 71 120
e 71 158
e 71 159
e 71 173
e 71 212
e 71 217
e 72 75
e 72 79
e 72 99
e 72 115
e 72 116
e 72 117
e 72 118
e 72 119
e 72 120
e 72 134
e 72 158
e 72 159
e 72 174
e 72 177
e 72 179
e 72 196
e 72 217
e 73 74
e 73 75
e 73 76
e 73 77
e 73 113
e 73 121
e 73 122
e 73 123
e 73 124
e 73 125
e 73 126
e 73 133
e 73 172
e 73 176
e 73 211
e 73 218
e 73 223
e 73 239
e 74 75
e 74 76
e 74 78
e 74 98
e 74 114
e 74 121
e 74 122
e 74 123
e 74 124
e 74 125
e 74 126
e 74 173
e 74 212
e 74 218
e 75 76
e 75 79
e 75 99
e 75 121
e 75 122
e 75 123
e 75 124
e 75 125
e 75 126
e 75 134
e 75 174
e 75 177
e 75 179
e 75 196
e 75 218
e 76 121
e 76 122
e 76 123
e 76 124
e 76 125
e 76 126
e 76 175
e 76 178
e 76 180
e 76 197
e 76 213
e 76 218
e 76 240
e 77 78
e 77 79
e 77 113
e 77 127
e 77 128
e 77 129
e 77 133
e 77 160
e 77 161
e 77 172
e 77 176
e 77 191
e 77 192
e 77 211
e 77 219
e 77 220
e 77 223
e 77 239
e 78 79
e 78 98
e 78 114
e 78 127
e 78 128
e 78 129
e 78 160
e 78 161
e 78 173
e 78 191
e 78 192
e 78 212
e 78 219
e 78 220
e 79 99
e 79 127
e 79 128
e 79 129
e 79 134
e 79 160
e 79 161
e 79 174
e 79 177
e 79 179
e 79 191
e 79 192
e 79 196
e 79 219
e 79 220
e 80 81
e 80 82
e 80 83
e 80 84
e 80 85
e 80 86
e 80 104
e 80 115
e 80 121
e 80 138
e 80 153
e 80 162
e 80 163
e 80 166
e 80 193
e 80 201
e 80 204
e 80 224
e 81 82
e 81 83
e 81 84
e 81 85
e 81 100
e 81 117
e 81 122
e 81 140
e 81 155
e 81 162
e 81 163
e 81 193
e 81 202
e 81 210
e 81 242
e 81 252
e 82 83
e 82 84
e 82 85
e 82 88
e 82 101
e 82 106
e 82 109
e 82 118
e 82 123
e 82 156
e 82 162
e 82 163
e 82 167
e 82 193
e 82 205
e 83 84
e 83 85
e 83 102
e 83 107
e 83 110
e 83 119
e 83 124
e 83 127
e 83 162
e 83 163
e 83 168
e 83 193
e 83 206
e 83 226
e 83 235
e 84 85
e 84 89
e 84 111
e 84 120
e 84 125
e 84 128
e 84 162
e 84 163
e 84 169
e 84 193
e 84 203
e 84 207
e 84 236
e 85 90
e 85 103
e 85 126
e 85 129
e 85 141
e 85 157
e 85 162
e 85 163
e 85 170
e 85 193
e 85 208
e 85 243
e 86 87
e 86 88
e 86 89
e 86 90
e 86 104
e 86 115
e 86 121
e 86 130
e 86 131
e 86 132
e 86 138
e 86 153
e 86 164
e 86 166
e 86 194
e 86 201
e 86 204
e 86 224
e 87 88
e 87 89
e 87 90
e 87 105
e 87 108
e 87 116
e 87 130
e 87 131
e 87 132
e 87 139
e 87 154
e 87 164
e 87 194
e 87 209
e 87 225
e 87 241
e 87 251
e 88 89
e 88 90
e 88 101
e 88 106
e 88 109
e 88 118
e 88 123
e 88 130
e 88 131
e 88 132
e 88 156
e 88 164
e 88 167
e 88 194
e 88 205
e 89 90
e 89 111
e 89 120
e 89 125
e 89 128
e 89 130
e 89 131
e 89 132
e 89 164
e 89 169
e 89 194
e 89 203
e 89 207
e 89 236
e 90 103
e 90 126
e 90 129
e 90 130
e 90 131
e 90 132
e 90 141
e 90 157
e 90 164
e 90 170
e 90 194
e 90 208
e 90 243
e 91 133
e 91 134
e 91 142
e 91 166
e 91 167
e 91 168
e 91 169
e 91 170
e 91 181
e 91 198
e 91 221
e 91 227
e 91 228
e 91 245
e 92 93
e 92 94
e 92 135
e 92 136
e 92 162
e 92 183
e 92 187
e 92 199
e 92 227
e 92 248
e 92 255
e 92 262
e 93 94
e 93 135
e 93 137
e 93 164
e 93 184
e 93 186
e 93 188
e 93 191
e 93 200
e 93 228
e 93 247
e 93 263
e 94 135
e 94 163
e 94 185
e 94 192
e 94 216
e 94 246
e 94 249
e 94 256
e 94 260
e 94 266
e 95 96
e 95 97
e 95 130
e 95 136
e 95 137
e 95 145
e 95 147
e 95 150
e 95 171
e 95 198
e 95 231
e 95 233
e 95 250
e 96 97
e 96 131
e 96 136
e 96 137
e 96 148
e 96 151
e 96 158
e 96 160
e 96 189
e 96 234
e 96 244
e 96 253
e 96 261
e 97 132
e 97 136
e 97 137
e 97 146
e 97 149
e 97 152
e 97 159
e 97 161
e 97 190
e 97 232
e 97 254
e 98 99
e 98 114
e 98 138
e 98 139
e 98 140
e 98 141
e 98 171
e 98 173
e 98 199
e 98 200
e 98 212
e 98 229
e 98 230
e 99 134
e 99 138
e 99 139
e 99 140
e 99 141
e 99 171
e 99 174
e 99 177
e 99 179
e 99 196
e 99 199
e 99 200
e 99 229
e 99 230
e 100 101
e 100 102
e 100 103
e 100 117
e 100 122
e 100 140
e 100 145
e 100 146
e 100 155
e 100 183
e 100 184
e 100 185
e 100 202
e 100 210
e 100 242
e 100 252
e 101 102
e 101 103
e 101 106
e 101 109
e 101 118
e 101 123
e 101 145
e 101 146
e 101 156
e 101 167
e 101 183
e 101 184
e 101 185
e 101 205
e 102 103
e 102 107
e 102 110
e 102 119
e 102 124
e 102 127
e 102 145
e 102 146
e 102 168
e 102 183
e 102 184
e 102 185
e 102 206
e 102 226
e 102 235
e 103 126
e 103 129
e 103 141
e 103 145
e 103 146
e 103 157
e 103 170
e 103 183
e 103 184
e 103 185
e 103 208
e 103 243
e 104 105
e 104 106
e 104 107
e 104 115
e 104 121
e 104 138
e 104 147
e 104 148
e 104 149
e 104 153
e 104 166
e 104 186
e 104 201
e 104 204
e 104 214
e 104 224
e 105 106
e 105 107
e 105 108
e 105 116
e 105 139
e 105 147
e 105 148
e 105 149
e 105 154
e 105 186
e 105 209
e 105 214
e 105 225
e 105 241
e 105 251
e 106 107
e 106 109
e 106 118
e 106 123
e 106 147
e 106 148
e 106 149
e 106 156
e 106 167
e 106 186
e 106 205
e 106 214
e 107 110
e 107 119
e 107 124
e 107 127
e 107 147
e 107 148
e 107 149
e 107 168
e 107 186
e 107 206
e 107 214
e 107 226
e 107 235
e 108 109
e 108 110
e 108 111
e 108 116
e 108 139
e 108 150
e 108 151
e 108 152
e 108 154
e 108 187
e 108 188
e 108 209
e 108 215
e 108 225
e 108 241
e 108 251
e 109 110
e 109 111
e 109 118
e 109 123
e 109 150
e 109 151
e 109 152
e 109 156
e 109 167
e 109 187
e 109 188
e 109 205
e 109 215
e 110 111
e 110 119
e 110 124
e 110 127
e 110 150
e 110 151
e 110 152
e 110 168
e 110 187
e 110 188
e 110 206
e 110 215
e 110 226
e 110 235
e 111 120
e 111 125
e 111 128
e 111 150
e 111 151
e 111 152
e 111 169
e 111 187
e 111 188
e 111 203
e 111 207
e 111 215
e 111 236
e 112 217
e 112 220
e 112 230
e 112 238
e 112 245
e 112 257
e 112 259
e 112 264
e 112 265
e 113 114
e 113 133
e 113 153
e 113 154
e 113 155
e 113 156
e 113 157
e 113 172
e 113 176
e 113 189
e 113 190
e 113 211
e 113 216
e 113 223
e 113 237
e 113 238
e 113 239
e 114 153
e 114 154
e 114 155
e 114 156
e 114 157
e 114 173
e 114 189
e 114 190
e 114 212
e 114 216
e 114 237
e 114 238
e 115 116
e 115 117
e 115 118
e 115 119
e 115 120
e 115 121
e 115 138
e 115 153
e 115 158
e 115 159
e 115 166
e 115 201
e 115 204
e 115 217
e 115 224
e 116 117
e 116 118
e 116 119
e 116 120
e 116 139
e 116 154
e 116 158
e 116 159
e 116 209
e 116 217
e 116 225
e 116 241
e 116 251
e 117 118
e 117 119
e 117 120
e 117 122
e 117 140
e 117 155
e 117 158
e 117 159
e 117 202
e 117 210
e 117 217
e 117 242
e 117 252
e 118 119
e 118 120
e 118 123
e 118 156
e 118 158
e 118 159
e 118 167
e 118 205
e 118 217
e 119 120
e 119 124
e 119 127
e 119 158
e 119 159
e 119 168
e 119 206
e 119 217
e 119 226
e 119 235
e 120 125
e 120 128
e 120 158
e 120 159
e 120 169
e 120 203
e 120 207
e 120 217
e 120 236
e 121 122
e 121 123
e 121 124
e 121 125
e 121 126
e 121 138
e 121 153
e 121 166
e 121 201
e 121 204
e 121 218
e 121 224
e 122 123
e 122 124
e 122 125
e 122 126
e 122 140
e 122 155
e 122 202
e 122 210
e 122 218
e 122 242
e 122 252
e 123 124
e 123 125
e 123 126
e 123 156
e 123 167
e 123 205
e 123 218
e 124 125
e 124 126
e 124 127
e 124 168
e 124 206
e 124 218
e 124 226
e 124 235
e 125 126
e 125 128
e 125 169
e 125 203
e 125 207
e 125 218
e 125 236
e 126 129
e 126 141
e 126 157
e 126 170
e 126 208
e 126 218
e 126 243
e 127 128
e 127 129
e 127 160
e 127 161
e 127 168
e 127 191
e 127 192
e 127 206
e 127 219
e 127 220
e 127 226
e 127 235
e 128 129
e 128 160
e 128 161
e 128 169
e 128 191
e 128 192
e 128 203
e 128 207
e 128 219
e 128 220
e 128 236
e 129 141
e 129 157
e 129 160
e 129 161
e 129 170
e 129 191
e 129 192
e 129 208
e 129 219
e 129 220
e 129 243
e 130 131
e 130 132
e 130 145
e 130 147
e 130 150
e 130 164
e 130 171
e 130 194
e 130 198
e 130 231
e 130 233
e 130 250
e 131 132
e 131 148
e 131 151
e 131 158
e 131 160
e 131 164
e 131 189
e 131 194
e 131 234
e 131 244
e 131 253
e 131 261
e 132 146
e 132 149
e 132 152
e 132 159
e 132 161
e 132 164
e 132 190
e 132 194
e 132 232
e 132 254
e 133 134
e 133 166
e 133 167
e 133 168
e 133 169
e 133 170
e 133 172
e 133 176
e 133 198
e 133 211
e 133 223
e 133 227
e 133 228
e 133 239
e 133 245
e 134 166
e 134 167
e 134 168
e 134 169
e 134 170
e 134 174
e 134 177
e 134 179
e 134 196
e 134 198
e 134 227
e 134 228
e 134 245
e 135 193
e 135 194
e 135 214
e 135 215
e 135 218
e 135 219
e 135 229
e 135 237
e 135 258
e 136 137
e 136 162
e 136 183
e 136 187
e 136 199
e 136 227
e 136 248
e 136 255
e 136 262
e 137 164
e 137 184
e 137 186
e 137 188
e 137 191
e 137 200
e 137 228
e 137 247
e 137 263
e 138 139
e 138 140
e 138 141
e 138 153
e 138 166
e 138 171
e 138 199
e 138 200
e 138 201
e 138 204
e 138 224
e 138 229
e 138 230
e 139 140
e 139 141
e 139 154
e 139 171
e 139 199
e 139 200
e 139 209
e 139 225
e 139 229
e 139 230
e 139 241
e 139 251
e 140 141
e 140 155
e 140 171
e 140 199
e 140 200
e 140 202
e 140 210
e 140 229
e 140 230
e 140 242
e 140 252
e 141 157
e 141 170
e 141 171
e 141 199
e 141 200
e 141 208
e 141 229
e 141 230
e 141 243
e 142 143
e 142 172
e 142 173
e 142 174
e 142 175
e 142 181
e 142 201
e 142 202
e 142 203
e 142 221
e 142 246
e 142 257
e 143 144
e 143 165
e 143 172
e 143 173
e 143 174
e 143 175
e 143 182
e 143 195
e 143 201
e 143 202
e 143 203
e 143 222
e 143 246
e 143 257
e 144 165
e 144 179
e 144 180
e 144 182
e 144 195
e 144 209
e 144 210
e 144 222
e 144 233
e 144 234
e 144 248
e 144 249
e 144 258
e 144 259
e 145 146
e 145 147
e 145 150
e 145 171
e 145 183
e 145 184
e 145 185
e 145 198
e 145 231
e 145 233
e 145 250
e 146 149
e 146 152
e 146 159
e 146 161
e 146 183
e 146 184
e 146 185
e 146 190
e 146 232
e 146 254
e 147 148
e 147 149
e 147 150
e 147 171
e 147 186
e 147 198
e 147 214
e 147 231
e 147 233
e 147 250
e 148 149
e 148 151
e 148 158
e 148 160
e 148 186
e 148 189
e 148 214
e 148 234
e 148 244
e 148 253
e 148 261
e 149 152
e 149 159
e 149 161
e 149 186
e 149 190
e 149 214
e 149 232
e 149 254
e 150 151
e 150 152
e 150 171
e 150 187
e 150 188
e 150 198
e 150 215
e 150 231
e 150 233
e 150 250
e 151 152
e 151 158
e 151 160
e 151 187
e 151 188
e 151 189
e 151 215
e 151 234
e 151 244
e 151 253
e 151 261
e 152 159
e 152 161
e 152 187
e 152 188
e 152 190
e 152 215
e 152 232
e 152 254
e 153 154
e 153 155
e 153 156
e 153 157
e 153 166
e 153 189
e 153 190
e 153 201
e 153 204
e 153 216
e 153 224
e 153 237
e 153 238
e 154 155
e 154 156
e 154 157
e 154 189
e 154 190
e 154 209
e 154 216
e 154 225
e 154 237
e 154 238
e 154 241
e 154 251
e 155 156
e 155 157
e 155 189
e 155 190
e 155 202
e 155 210
e 155 216
e 155 237
e 155 238
e 155 242
e 155 252
e 156 157
e 156 167
e 156 189
e 156 190
e 156 205
e 156 216
e 156 237
e 156 238
e 157 170
e 157 189
e 157 190
e 157 208
e 157 216
e 157 237
e 157 238
e 157 243
e 158 159
e 158 160
e 158 189
e 158 217
e 158 234
e 158 244
e 158 253
e 158 261
e 159 161
e 159 190
e 159 217
e 159 232
e 159 254
e 160 161
e 160 189
e 160 191
e 160 192
e 160 219
e 160 220
e 160 234
e 160 244
e 160 253
e 160 261
e 161 190
e 161 191
e 161 192
e 161 219
e 161 220
e 161 232
e 161 254
e 162 163
e 162 183
e 162 187
e 162 193
e 162 199
e 162 227
e 162 248
e 162 255
e 162 262
e 163 185
e 163 192
e 163 193
e 163 216
e 163 246
e 163 249
e 163 256
e 163 260
e 163 266
e 164 184
e 164 186
e 164 188
e 164 191
e 164 194
e 164 200
e 164 228
e 164 247
e 164 263
e 165 182
e 165 195
e 165 196
e 165 197
e 165 222
e 165 224
e 165 225
e 165 226
e 165 244
e 165 255
e 165 256
e 165 264
e 166 167
e 166 168
e 166 169
e 166 170
e 166 198
e 166 201
e 166 204
e 166 224
e 166 227
e 166 228
e 166 245
e 167 168
e 167 169
e 167 170
e 167 198
e 167 205
e 167 227
e 167 228
e 167 245
e 168 169
e 168 170
e 168 198
e 168 206
e 168 226
e 168 227
e 168 228
e 168 235
e 168 245
e 169 170
e 169 198
e 169 203
e 169 207
e 169 227
e 169 228
e 169 236
e 169 245
e 170 198
e 170 208
e 170 227
e 170 228
e 170 243
e 170 245
e 171 198
e 171 199
e 171 200
e 171 229
e 171 230
e 171 231
e 171 233
e 171 250
e 172 173
e 172 174
e 172 175
e 172 176
e 172 201
e 172 202
e 172 203
e 172 211
e 172 223
e 172 239
e 172 246
e 172 257
e 173 174
e 173 175
e 173 201
e 173 202
e 173 203
e 173 212
e 173 246
e 173 257
e 174 175
e 174 177
e 174 179
e 174 196
e 174 201
e 174 202
e 174 203
e 174 246
e 174 257
e 175 178
e 175 180
e 175 197
e 175 201
e 175 202
e 175 203
e 175 213
e 175 240
e 175 246
e 175 257
e 176 177
e 176 178
e 176 204
e 176 205
e 176 206
e 176 207
e 176 208
e 176 211
e 176 223
e 176 231
e 176 232
e 176 239
e 176 247
e 177 178
e 177 179
e 177 196
e 177 204
e 177 205
e 177 206
e 177 207
e 177 208
e 177 231
e 177 232
e 177 247
e 178 180
e 178 197
e 178 204
e 178 205
e 178 206
e 178 207
e 178 208
e 178 213
e 178 231
e 178 232
e 178 240
e 178 247
e 179 180
e 179 196
e 179 209
e 179 210
e 179 233
e 179 234
e 179 248
e 179 249
e 179 258
e 179 259
e 180 197
e 180 209
e 180 210
e 180 213
e 180 233
e 180 234
e 180 240
e 180 248
e 180 249
e 180 258
e 180 259
e 181 182
e 181 211
e 181 212
e 181 213
e 181 221
e 181 235
e 181 236
e 181 250
e 181 260
e 181 265
e 182 195
e 182 211
e 182 212
e 182 213
e 182 222
e 182 235
e 182 236
e 182 250
e 182 260
e 182 265
e 183 184
e 183 185
e 183 187
e 183 199
e 183 227
e 183 248
e 183 255
e 183 262
e 184 185
e 184 186
e 184 188
e 184 191
e 184 200
e 184 228
e 184 247
e 184 263
e 185 192
e 185 216
e 185 246
e 185 249
e 185 256
e 185 260
e 185 266
e 186 188
e 186 191
e 186 200
e 186 214
e 186 228
e 186 247
e 186 263
e 187 188
e 187 199
e 187 215
e 187 227
e 187 248
e 187 255
e 187 262
e 188 191
e 188 200
e 188 215
e 188 228
e 188 247
e 188 263
e 189 190
e 189 216
e 189 234
e 189 237
e 189 238
e 189 244
e 189 253
e 189 261
e 190 216
e 190 232
e 190 237
e 190 238
e 190 254
e 191 192
e 191 200
e 191 219
e 191 220
e 191 228
e 191 247
e 191 263
e 192 216
e 192 219
e 192 220
e 192 246
e 192 249
e 192 256
e 192 260
e 192 266
e 193 194
e 193 214
e 193 215
e 193 218
e 193 219
e 193 229
e 193 237
e 193 258
e 194 214
e 194 215
e 194 218
e 194 219
e 194 229
e 194 237
e 194 258
e 195 222
e 195 223
e 195 241
e 195 242
e 195 243
e 195 253
e 195 254
e 195 262
e 195 263
e 196 197
e 196 224
e 196 225
e 196 226
e 196 244
e 196 255
e 196 256
e 196 264
e 197 213
e 197 224
e 197 225
e 197 226
e 197 240
e 197 244
e 197 255
e 197 256
e 197 264
e 198 227
e 198 228
e 198 231
e 198 233
e 198 245
e 198 250
e 199 200
e 199 227
e 199 229
e 199 230
e 199 248
e 199 255
e 199 262
e 200 228
e 200 229
e 200 230
e 200 247
e 200 263
e 201 202
e 201 203
e 201 204
e 201 224
e 201 246
e 201 257
e 202 203
e 202 210
e 202 242
e 202 246
e 202 252
e 202 257
e 203 207
e 203 236
e 203 246
e 203 257
e 204 205
e 204 206
e 204 207
e 204 208
e 204 224
e 204 231
e 204 232
e 204 247
e 205 206
e 205 207
e 205 208
e 205 231
e 205 232
e 205 247
e 206 207
e 206 208
e 206 226
e 206 231
e 206 232
e 206 235
e 206 247
e 207 208
e 207 231
e 207 232
e 207 236
e 207 247
e 208 231
e 208 232
e 208 243
e 208 247
e 209 210
e 209 225
e 209 233
e 209 234
e 209 241
e 209 248
e 209 249
e 209 251
e 209 258
e 209 259
e 210 233
e 210 234
e 210 242
e 210 248
e 210 249
e 210 252
e 210 258
e 210 259
e 211 212
e 211 213
e 211 223
e 211 235
e 211 236
e 211 239
e 211 250
e 211 260
e 211 265
e 212 213
e 212 235
e 212 236
e 212 250
e 212 260
e 212 265
e 213 235
e 213 236
e 213 240
e 213 250
e 213 260
e 213 265
e 214 215
e 214 218
e 214 219
e 214 229
e 214 237
e 214 258
e 215 218
e 215 219
e 215 229
e 215 237
e 215 258
e 216 237
e 216 238
e 216 246
e 216 249
e 216 256
e 216 260
e 216 266
e 217 220
e 217 230
e 217 238
e 217 245
e 217 257
e 217 259
e 217 264
e 217 265
e 218 219
e 218 229
e 218 237
e 218 258
e 219 220
e 219 229
e 219 237
e 219 258
e 220 230
e 220 238
e 220 245
e 220 257
e 220 259
e 220 264
e 220 265
e 221 222
e 221 239
e 221 240
e 221 251
e 221 252
e 221 261
e 221 266
e 222 239
e 222 240
e 222 251
e 222 252
e 222 261
e 222 266
e 223 239
e 223 241
e 223 242
e 223 243
e 223 253
e 223 254
e 223 262
e 223 263
e 224 225
e 224 226
e 224 244
e 224 255
e 224 256
e 224 264
e 225 226
e 225 241
e 225 244
e 225 251
e 225 255
e 225 256
e 225 264
e 226 235
e 226 244
e 226 255
e 226 256
e 226 264
e 227 228
e 227 245
e 227 248
e 227 255
e 227 262
e 228 245
e 228 247
e 228 263
e 229 230
e 229 237
e 229 258
e 230 238
e 230 245
e 230 257
e 230 259
e 230 264
e 230 265
e 231 232
e 231 233
e 231 247
e 231 250
e 232 247
e 232 254
e 233 234
e 233 248
e 233 249
e 233 250
e 233 258
e 233 259
e 234 244
e 234 248
e 234 249
e 234 253
e 234 258
e 234 259
e 234 261
e 235 236
e 235 250
e 235 260
e 235 265
e 236 250
e 236 260
e 236 265
e 237 238
e 237 258
e 238 245
e 238 257
e 238 259
e 238 264
e 238 265
e 239 240
e 239 251
e 239 252
e 239 261
e 239 266
e 240 251
e 240 252
e 240 261
e 240 266
e 241 242
e 241 243
e 241 251
e 241 253
e 241 254
e 241 262
e 241 263
e 242 243
e 242 252
e 242 253
e 242 254
e 242 262
e 242 263
e 243 253
e 243 254
e 243 262
e 243 263
e 244 253
e 244 255
e 244 256
e 244 261
e 244 264
e 245 257
e 245 259
e 245 264
e 245 265
e 246 249
e 246 256
e 246 257
e 246 260
e 246 266
e 247 263
e 248 249
e 248 255
e 248 258
e 248 259
e 248 262
e 249 256
e 249 258
e 249 259
e 249 260
e 249 266
e 250 260
e 250 265
e 251 252
e 251 261
e 251 266
e 252 261
e 252 266
e 253 254
e 253 261
e 253 262
e 253 263
e 254 262
e 254 263
e 255 256
e 255 262
e 255 264
e 256 260
e 256 264
e 256 266
e 257 259
e 257 264
e 257 265
e 258 259
e 259 264
e 259 265
e 260 265
e 260 266
e 261 266
e 262 263
e 264 265
